c --- [ banner ] -------------------------------------------------------------
c 
c CaDiCaL Radically Simplified CDCL SAT Solver
c Copyright (c) 2016-2021 A. Biere, M. Fleury, N. Froleyks
c 
c Version 1.5.2 a5f15211db36c3956764e18194dd5bd63bf3b5e6
c g++ (GCC) 9.3.0 -Wall -Wextra -O3 -DNDEBUG
c Fri Oct 21 01:27:37 EDT 2022 Linux gra-login3 3.10.0-1160.66.1.el7.x86_64 x86_64
c 
c --- [ limit ] --------------------------------------------------------------
c 
c setting conflict limit to 200000 conflicts (due to '200000')
c 
c --- [ parsing input ] ------------------------------------------------------
c 
c reading DIMACS file from '33.cubes3305.adj'
c opening file to read '33.cubes3305.adj'
c found 'p cnf 6160 1595472' header
c parsed 1595472 clauses in 18.97 seconds process time
c closing file '33.cubes3305.adj'
c after reading 1457566758 bytes 1390.0 MB
c 
c --- [ options ] ------------------------------------------------------------
c 
c all options are set to their default value
c 
c --- [ solving ] ------------------------------------------------------------
c 
c time measured in process time since initialization
c 
c  seconds    reductions  redundant   irredundant
c          MB     restarts       trail       variables
c            level   conflicts       glue         remaining
c 
c * 18.97 1382  0 0   0    0    0  0% 0 1595422 2406 39%
c { 20.32 1445  0 0   0    0    0  0% 0 1595422 2406 39%
c i 25.84 1526 244 0  29  177  144 26% 18 1595422 2405 39%
c i 26.11 1529 236 0  31  192  150 26% 18 1595422 2404 39%
c - 31.92 1502 161 1  35  301  224 26% 17 492552 2404 39%
c i 32.59 1464 135 1  41  378  278 27% 19 492552 2403 39%
c i 34.65 1466 123 1  76  516  393 27% 23 492552 2402 39%
c i 35.27 1467 123 1  81  541  410 27% 24 492552 2390 39%
c i 35.42 1468 124 1  85  556  420 27% 25 492552 2382 39%
c i 35.50 1468 124 1  86  557  420 27% 24 492552 2381 39%
c i 35.81 1468 126 1  92  608  451 27% 28 492552 2380 39%
c i 36.99 1469 124 1 102  653  495 27% 28 492552 2379 39%
c i 37.63 1470 114 1 110  736  557 27% 28 492552 2378 39%
c i 39.90 1471 109 1 144  896  687 27% 31 492552 2377 39%
c i 40.00 1471 108 1 144  901  691 27% 31 492552 2376 39%
c i 40.12 1471 107 1 144  923  712 28% 31 492552 2375 39%
c i 40.24 1471 103 1 144  969  750 28% 31 492552 2374 39%
c i 40.27 1471 103 1 144  971  751 28% 31 492552 2373 39%
c } 40.34 1471 101 1 144 1001  775 28% 31 492552 2373 39%
c [ 40.34 1471  0 1 144 1001  775  0% 0 492552 2373 39%
c 
c  seconds    reductions  redundant  irredundant
c          MB     restarts       trail      variables
c            level   conflicts       glue        remaining
c 
c O 40.35 1471  1 1 144 1002  776 14% 1 492552 2373 39%
c i 40.36 1471  1 1 144 1005  778 15% 1 492552 2308 37%
c - 42.35 1656 25 2 144 1316  962 33% 19 491397 2308 37%
c i 43.01 1656 25 2 144 1716 1276 32% 19 491397 2307 37%
c i 43.29 1656 24 2 144 1944 1468 32% 19 491397 2306 37%
c i 43.33 1656 24 2 144 1982 1501 32% 18 491397 2305 37%
c i 43.50 1656 24 2 145 2227 1673 32% 19 491397 2304 37%
c i 43.83 1656 25 2 145 2677 2005 31% 20 491397 2303 37%
c - 44.60 1602 25 3 145 2840 1637 31% 20 491382 2303 37%
c i 45.04 1602 25 3 145 2869 1661 51% 20 491382 2302 37%
c ] 45.14 1602 26 3 145 3001 1765 50% 21 491382 2302 37%
c { 45.14 1602 101 3 145 3001 1765 74% 31 491382 2302 37%
c F 45.15 1602 101 3 145 3006 1769 74% 30 491382 2302 37%
c i 45.21 1602 100 3 145 3015 1776 74% 30 491382 2301 37%
c i 46.10 1602 82 3 145 3304 2036 69% 26 491382 2300 37%
c i 46.44 1602 75 3 145 3460 2173 66% 24 491382 2299 37%
c i 46.49 1602 75 3 145 3472 2179 66% 24 491382 2298 37%
c i 46.49 1602 75 3 145 3473 2179 66% 24 491382 2297 37%
c i 46.60 1602 75 3 146 3511 2206 66% 24 491382 2296 37%
c i 46.84 1602 69 3 146 3715 2354 64% 23 491382 2295 37%
c 
c  seconds    reductions  redundant   irredundant
c          MB     restarts       trail       variables
c            level   conflicts       glue         remaining
c 
c i 47.34 1602 60 3 146 4126 2623 61% 22 491382 2288 37%
c i 47.38 1602 59 3 146 4146 2637 61% 22 491382 2287 37%
c i 47.98 1602 60 3 160 4225 2711 60% 22 491382 2284 37%
c i 48.23 1602 59 3 172 4275 2753 60% 22 491382 2283 37%
c i 48.23 1602 59 3 172 4276 2753 60% 22 491382 2282 37%
c i 49.98 1602 57 3 206 4631 3060 58% 23 491382 2281 37%
c i 50.31 1602 58 3 217 4681 3101 58% 23 491382 2280 37%
c i 50.51 1602 58 3 221 4701 3120 58% 23 491382 2279 37%
c - 51.67 1592 56 4 228 4870 2310 57% 22 491184 2279 37%
c i 51.95 1592 55 4 228 4974 2395 57% 22 491184 2278 37%
c d 52.82 1592 55 4 228 5000 2412 57% 22 491163 2269 37%
c 3 52.87 1592 55 4 228 5000 3559 57% 22 491163 2269 37%
c 2 52.97 1592 55 4 228 5000 3668 57% 22 491160 2269 37%
c p 58.23 1592 55 4 228 5000 7797 57% 22 491160 2184 35%
c d 59.00 1592 55 4 228 5000 7660 57% 22 403625 2181 35%
c # 60.85 1592 45 4 228 6008 8274 54% 20 403625 2181 35%
c } 63.91 1592 42 4 303 7002 9076 53% 20 403625 2181 35%
c [ 63.91 1592 26 4 303 7002 9076 50% 21 403625 2181 35%
c - 64.59 1374 26 5 304 7408 3310 51% 21 403625 2181 35%
c I 67.42 1374 24 5 305 10009 4861 50% 20 403625 2181 35%
c 
c  seconds    reductions   redundant   irredundant
c          MB     restarts        trail       variables
c            level    conflicts       glue         remaining
c 
c - 68.37 1537 26 6 306 10298 3430 50% 21 403625 2181 35%
c - 71.35 1374 33 7 308 13670 4049 49% 27 403625 2181 35%
c 2 72.93 1374 33 7 308 15001 6279 49% 27 403625 2181 35%
c p 76.39 1374 33 7 308 15001 10263 49% 27 403625 2181 35%
c ] 76.61 1374 33 7 308 15003 10265 49% 27 403625 2181 35%
c { 76.62 1374 42 7 308 15003 10265 53% 20 403625 2181 35%
c B 76.86 1374 42 7 308 15014 10272 53% 20 403625 2181 35%
c - 82.66 1537 38 8 465 17525 5065 52% 20 403625 2181 35%
c s 83.56 1537 36 8 514 18750 5884 51% 20 400947 2181 35%
c v 88.30 1537 36 8 514 18750 5884 51% 20 400927 2181 35%
c t 88.44 1537 36 8 514 18750 5870 51% 20 400914 2181 35%
c e 90.05 1539 36 8 514 18750 5481 51% 20 398912 957 16%
c s 90.19 1539 36 8 514 18750 5478 51% 20 393824 957 16%
c W 100.69 1376 35 8 667 21015 7228 66% 20 393824 957 16%
c - 105.84 1376 36 9 754 21861 6004 65% 20 393824 957 16%
c - 111.91 1376 31 10 855 26646 6510 66% 19 393824 957 16%
c F 116.76 1376 32 10 1017 28017 7535 66% 19 393824 957 16%
c 2 121.77 1376 31 10 1097 30003 9584 66% 19 393823 957 16%
c p 129.01 1376 31 10 1097 30003 12011 66% 19 393823 955 16%
c } 131.63 1376 31 10 1142 31004 12704 66% 19 393823 955 16%
c 
c  seconds     reductions      redundant    irredundant
c           MB      restarts          trail        variables
c             level      conflicts         glue        remaining
c 
c [ 131.64 1376 33 10 1142 31004 12704 118% 27 393823 955 16%
c - 132.53 1376 32 11 1142 31910 7397 113% 26 393817 955 16%
c B 134.64 1376 30 11 1145 36021 9794 99% 25 393817 955 16%
c - 135.82 1376 30 12 1145 37654 7608 95% 25 393817 955 16%
c - 139.41 1376 29 13 1149 43879 7687 87% 24 393817 955 16%
c W 141.53 1376 28 13 1149 45022 8503 85% 24 393817 955 16%
c p 149.19 1376 28 13 1150 50005 15034 82% 24 393817 954 15%
c - 150.28 1376 27 14 1150 50579 8546 82% 24 393814 954 15%
c s 152.29 1376 27 14 1150 53492 10301 80% 23 391552 954 15%
c v 159.48 1376 27 14 1150 53492 10301 80% 23 391526 954 15%
c t 159.72 1376 27 14 1150 53492 10301 80% 23 391525 954 15%
c s 161.41 1377 27 14 1150 53492 10299 80% 23 388014 954 15%
c O 164.07 1377 27 14 1151 55024 11286 80% 24 388014 954 15%
c - 165.19 1377 27 15 1153 57758 8926 79% 23 388014 954 15%
c ] 166.88 1377 27 15 1157 63006 12064 77% 23 388014 954 15%
c { 166.88 1377 31 15 1157 63006 12064 66% 19 388014 954 15%
c - 168.91 1377 30 16 1277 65385 9338 66% 19 388014 954 15%
c B 169.37 1377 29 16 1277 66025 9697 66% 19 388014 954 15%
c - 177.62 1377 27 17 1488 73490 9900 66% 18 388014 954 15%
c p 181.06 1377 27 17 1499 75005 14315 67% 18 388014 954 15%
c 
c  seconds     reductions      redundant   irredundant
c           MB      restarts          trail       variables
c             level      conflicts        glue        remaining
c 
c W 183.18 1377 26 17 1512 78026 15908 67% 18 388014 954 15%
c - 185.60 1377 25 18 1617 82073 10720 67% 17 388014 954 15%
c # 198.71 1377 24 18 1868 91032 16325 67% 17 388014 954 15%
c - 199.22 1377 24 19 1876 91129 11830 67% 17 388014 954 15%
c - 217.53 1377 24 20 2374 100663 13368 67% 17 388014 954 15%
c p 225.63 1377 23 20 2481 105008 19585 67% 17 388014 954 15%
c B 226.07 1377 23 20 2481 105036 19598 67% 17 388014 954 15%
c - 232.89 1377 22 21 2539 110672 13935 67% 16 388014 954 15%
c } 236.31 1377 22 21 2640 115311 16628 67% 16 388014 954 15%
c 1 236.31 1377 22 21 2640 115311 16628 67% 16 388014 954 15%
c 
c --- [ writing output ] -----------------------------------------------------
c 
c writing simplified CNF to DIMACS file 'simp/33.cubes3305.adj.simp1'
c * 236.31 1377 22 21 2640 115311 16628 67% 16 388014 954 15%
c opening file to write 'simp/33.cubes3305.adj.simp1'
c writing 'p cnf 6160 388014' header
c closing file 'simp/33.cubes3305.adj.simp1'
c after writing 184264987 bytes 175.7 MB
c wrote 388014 clauses in 1.30 seconds process time
c 
c --- [ writing extension ] --------------------------------------------------
c 
c writing extension stack to 'simp/33.cubes3305.adj.ext1'
c opening file to write 'simp/33.cubes3305.adj.ext1'
c closing file 'simp/33.cubes3305.adj.ext1'
c after writing 85013 bytes 0.1 MB
c wrote 3771 witnesses in 0.00 seconds process time
c 
c --- [ result ] -------------------------------------------------------------
c 
s SATISFIABLE
c 
c --- [ run-time profiling ] -------------------------------------------------
c 
c process time taken by individual solving procedures
c (percentage relative to process time for solving)
c 
c       168.79   77.66% search
c       133.63   61.49% unstable
c        48.55   22.34% simplify
c        31.49   14.49% stable
c        27.40   12.61% probe
c        18.97    8.73% parse
c        12.22    5.62% vivify
c         5.85    2.69% elim
c         2.32    1.07% walk
c         1.35    0.62% lucky
c         0.66    0.30% subsume
c         0.34    0.16% ternary
c   =================================
c       217.34   91.47% solve
c 
c last line shows process time for solving
c (percentage relative to total process time)
c 
c --- [ statistics ] ---------------------------------------------------------
c 
c chronological:             21652        18.78 %  of conflicts
c conflicts:                115311       530.56    per second
c decisions:                249627      1148.57    per second
c eliminated:                 1224        19.87 %  of all variables
c fixed:                       826        13.41 %  of all variables
c learned:                  112444        97.51 %  per conflict
c learned_lits:           18637724       100.00 %  learned literals
c minimized:                     0         0.00 %  learned literals
c shrunken:               12695464        68.12 %  learned literals
c minishrunken:            1114479         5.98 %  learned literals
c propagations:            9441662         0.04 M  per second
c reduced:                   57882        50.20 %  per conflict
c rephased:                     14      8236.50    interval
c restarts:                   2640        43.68    interval
c stabilizing:                   3        36.43 %  of conflicts
c substituted:                  12         0.19 %  of all variables
c subsumed:                  51602         1.42 %  of all clauses
c strengthened:              10559         0.29 %  of all clauses
c ternary:                    5421         0.72 %  of resolved
c vivified:                     73         0.00 %  of all clauses
c walked:                        3     38437.00    interval
c weakened:                   2945         3.19    average size
c 
c seconds are measured in process time for solving
c 
c --- [ resources ] ----------------------------------------------------------
c 
c total process time since initialization:       237.61    seconds
c total real time since initialization:          237.95    seconds
c maximum resident set size of process:         1885.00    MB
c 
c --- [ shutting down ] ------------------------------------------------------
c 
c exit 10
WARNING! DIMACS header mismatch: wrong number of variables.
============================[ Problem Statistics ]=============================
|                                                                             |
|  Number of variables:          4041                                         |
|  Number of clauses:          388014                                         |
|  Parse time:                   2.43 s                                       |
|  Simplification time:          0.07 s                                       |
|                                                                             |
============================[ Search Statistics ]====================================================
| Conflicts |          ORIGINAL         |          LEARNT          | Num Sols |      SUBGRAPHS      |
|           |    Vars  Clauses Literals |    Limit  Clauses Lit/Cl |          | Canonical Noncanon. |
=====================================================================================================
|       389 |    3950   388303 39798550 |     2000      389     16 |        0 |       137       289 |
|       985 |    3950   388749 39802572 |     2000      985     15 |        0 |       300       735 |
|      1254 |    3950   388793 39803191 |     2000     1254     29 |        0 |       308       779 |
|      1628 |    3950   388830 39803725 |     2000     1628     46 |        0 |       316       816 |
|      2264 |    3950   388960 39805630 |     3600     1264     17 |        0 |       357       946 |
|      3114 |    3950   389051 39807525 |     3600     2114     40 |        0 |       395      1037 |
|      4361 |    3950   389159 39809500 |     3600     3361     51 |        0 |       449      1145 |
|      6225 |    3950   389315 39812155 |     4998     3423     42 |        0 |       514      1301 |
|      8884 |    3950   389412 39814082 |     6300     3584     31 |        0 |       561      1398 |
|     12896 |    3950   389580 39817197 |     7556     4452     36 |        0 |       658      1566 |
|     19070 |    3950   389988 39824494 |     8782     6852     52 |        0 |       822      1974 |
|     29423 |    3950   391692 39849760 |    11203     7826     38 |        0 |      1427      3678 |
|     43597 |    3950   392892 39867580 |    13613    10210     44 |        0 |      1728      4878 |
|     64966 |    3950   394800 39897862 |    17210     9376     20 |        0 |      2410      6786 |
|     95290 |    3950   395932 39915058 |    20806    12096     29 |        0 |      2871      7918 |
|    165546 |    3950   422399 40303492 |    26817    24363     51 |        0 |     10540     34385 |
|    238667 |    3950   429836 40425964 |    32811    24478     41 |        0 |     12630     41822 |
=====================================================================================================
Number of solutions   : 0
Canonical subgraphs   : 14369          (2 /sec)
          order  3    : 1              (200000 /sec)
          order  4    : 1              (500000 /sec)
          order  5    : 1              (250000 /sec)
          order  6    : 1              (58824 /sec)
          order  7    : 1              (8929 /sec)
          order  8    : 2              (1365 /sec)
          order  9    : 4              (240 /sec)
          order 10    : 11             (53 /sec)
          order 11    : 58             (17 /sec)
          order 12    : 349            (6 /sec)
          order 13    : 929            (2 /sec)
          order 14    : 5911           (4 /sec)
          order 15    : 1945           (1 /sec)
          order 16    : 5054           (2 /sec)
          order 17    : 65             (2 /sec)
          order 18    : 32             (3 /sec)
          order 19    : 4              (2 /sec)
          order 20    : 0              (-nan /sec)
          order 21    : 0              (-nan /sec)
          order 22    : 0              (-nan /sec)
Noncanonical subgraphs: 47743          (63 /sec)
          order  3    : 0              (-nan /sec)
          order  4    : 0              (-nan /sec)
          order  5    : 0              (-nan /sec)
          order  6    : 0              (-nan /sec)
          order  7    : 0              (-nan /sec)
          order  8    : 0              (-nan /sec)
          order  9    : 0              (-nan /sec)
          order 10    : 0              (-nan /sec)
          order 11    : 0              (-nan /sec)
          order 12    : 0              (-nan /sec)
          order 13    : 3388           (8904 /sec)
          order 14    : 11632          (2816 /sec)
          order 15    : 16031          (371 /sec)
          order 16    : 8880           (94 /sec)
          order 17    : 7686           (13 /sec)
          order 18    : 104            (28 /sec)
          order 19    : 22             (7 /sec)
          order 20    : 0              (-nan /sec)
          order 21    : 0              (-nan /sec)
Canonicity checking   : 6190.35 s
Noncanonicity checking: 760.933 s
Total canonicity time : 6951.28 s
database reductions   : 30
restarts              : 767
conflicts             : 333531         (47 /sec)
decisions             : 509870         (0.00 % random) (72 /sec)
propagations          : 18222817       (2556 /sec)
conflict literals     : 26259534       (54.10 % deleted)
actual reward         : 0.221852
Memory used           : 465.00 MB
CPU time              : 7129.52 s

UNSATISFIABLE
